(set-logic ALL)
(declare-fun var0 () String)
(assert (str.in_re var0 (re.++ (re.union (re.+ (str.to_re "00")) (re.+ (str.to_re "11"))) (re.++ (re.* (re.+ (str.to_re "222"))) (re.++ (re.union (re.+ (str.to_re "33")) (re.+ (str.to_re "444"))) (re.++ (re.union (re.union (str.to_re "555") (str.to_re "66")) (re.union (str.to_re "77") (str.to_re "888"))) (re.++ (re.* (re.* (str.to_re "99"))) (re.++ (re.+ (re.* (str.to_re "a"))) (re.++ (re.union (re.* (str.to_re "bbb")) (re.* (str.to_re "cc"))) (re.++ (re.union (re.+ (str.to_re "dd")) (re.+ (str.to_re "e"))) (re.++ (re.+ (re.+ (str.to_re "fff"))) (re.++ (re.* (re.+ (str.to_re "gg"))) (re.++ (re.* (re.union (str.to_re "hhh") (str.to_re "i"))) (re.++ (re.+ (re.+ (str.to_re "jj"))) (re.++ (re.union (re.* (str.to_re "kkk")) (re.* (str.to_re "l"))) (re.++ (re.+ (re.union (str.to_re "mm") (str.to_re "n"))) (re.++ (re.union (re.union (str.to_re "o") (str.to_re "ppp")) (re.union (str.to_re "q") (str.to_re "rr"))) (re.++ (re.* (re.* (str.to_re "s"))) (re.++ (re.* (re.+ (str.to_re "ttt"))) (re.++ (re.+ (re.union (str.to_re "uu") (str.to_re "v"))) (re.++ (re.+ (re.+ (str.to_re "www"))) (re.++ (re.union (re.union (str.to_re "xxx") (str.to_re "yy")) (re.union (str.to_re "zz") (str.to_re "A"))) (re.++ (re.+ (re.+ (str.to_re "B"))) (re.++ (re.union (re.+ (str.to_re "CC")) (re.+ (str.to_re "D"))) (re.++ (re.+ (re.+ (str.to_re "EE"))) (re.++ (re.+ (re.* (str.to_re "FF"))) (re.++ (re.* (re.+ (str.to_re "GGG"))) (re.++ (re.union (re.* (str.to_re "HHH")) (re.* (str.to_re "III"))) (re.++ (re.* (re.union (str.to_re "J") (str.to_re "KK"))) (re.++ (re.* (re.+ (str.to_re "LL"))) (re.++ (re.+ (re.union (str.to_re "MMM") (str.to_re "N"))) (re.++ (re.* (re.+ (str.to_re "O"))) (re.++ (re.+ (re.* (str.to_re "PPP"))) (re.++ (re.+ (re.* (str.to_re "Q"))) (re.++ (re.+ (re.+ (str.to_re "RRR"))) (re.++ (re.+ (re.* (str.to_re "S"))) (re.++ (re.union (re.+ (str.to_re "TT")) (re.+ (str.to_re "U"))) (re.++ (re.union (re.+ (str.to_re "VV")) (re.+ (str.to_re "W"))) (re.++ (re.union (re.* (str.to_re "X")) (re.* (str.to_re "YYY"))) (re.++ (re.* (re.union (str.to_re "Z") (str.to_re "!"))) (re.++ (re.union (re.* (str.to_re """""")) (re.* (str.to_re "#"))) (re.++ (re.union (re.union (str.to_re "$$$") (str.to_re "%%%")) (re.union (str.to_re "&&") (str.to_re "''"))) (re.++ (re.* (re.* (str.to_re "((("))) (re.++ (re.* (re.+ (str.to_re ")))"))) (re.++ (re.union (re.+ (str.to_re "***")) (re.+ (str.to_re "+++"))) (re.++ (re.union (re.+ (str.to_re ",,")) (re.+ (str.to_re "-"))) (re.++ (re.union (re.* (str.to_re "..")) (re.* (str.to_re "///"))) (re.++ (re.+ (re.union (str.to_re ":") (str.to_re ";;"))) (re.++ (re.* (re.+ (str.to_re "<<"))) (re.++ (re.+ (re.+ (str.to_re "=="))) (re.++ (re.+ (re.union (str.to_re ">") (str.to_re "??"))) (re.++ (re.* (re.union (str.to_re "@@") (str.to_re "[["))) (re.++ (re.+ (re.* (str.to_re "\\\\"))) (re.++ (re.+ (re.* (str.to_re "]"))) (re.++ (re.* (re.* (str.to_re "^^"))) (re.++ (re.union (re.+ (str.to_re "___")) (re.+ (str.to_re "``"))) (re.++ (re.* (re.union (str.to_re "{") (str.to_re "|"))) (re.++ (re.* (re.union (str.to_re "}}") (str.to_re "~"))) (re.++ (re.union (re.* (str.to_re "0")) (re.* (str.to_re "1"))) (re.++ (re.* (re.union (str.to_re "222") (str.to_re "3"))) (re.++ (re.union (re.+ (str.to_re "4")) (re.+ (str.to_re "5"))) (re.++ (re.union (re.* (str.to_re "6")) (re.* (str.to_re "77"))) (re.++ (re.* (re.* (str.to_re "888"))) (re.++ (re.union (re.union (str.to_re "9") (str.to_re "aaa")) (re.union (str.to_re "b") (str.to_re "c"))) (re.++ (re.union (re.union (str.to_re "d") (str.to_re "e")) (re.union (str.to_re "fff") (str.to_re "g"))) (re.++ (re.union (re.+ (str.to_re "hh")) (re.+ (str.to_re "ii"))) (re.++ (re.* (re.* (str.to_re "jjj"))) (re.++ (re.+ (re.union (str.to_re "kkk") (str.to_re "lll"))) (re.++ (re.union (re.* (str.to_re "mm")) (re.* (str.to_re "nnn"))) (re.++ (re.* (re.* (str.to_re "ooo"))) (re.++ (re.union (re.union (str.to_re "pp") (str.to_re "qqq")) (re.union (str.to_re "r") (str.to_re "s"))) (re.++ (re.* (re.union (str.to_re "ttt") (str.to_re "u"))) (re.++ (re.* (re.* (str.to_re "v"))) (re.++ (re.+ (re.union (str.to_re "w") (str.to_re "xxx"))) (re.++ (re.* (re.+ (str.to_re "yyy"))) (re.++ (re.* (re.union (str.to_re "zz") (str.to_re "AAA"))) (re.++ (re.union (re.* (str.to_re "BB")) (re.* (str.to_re "CCC"))) (re.++ (re.* (re.+ (str.to_re "DDD"))) (re.++ (re.union (re.* (str.to_re "EE")) (re.* (str.to_re "F"))) (re.++ (re.* (re.* (str.to_re "GG"))) (re.++ (re.* (re.* (str.to_re "HH"))) (re.++ (re.+ (re.* (str.to_re "II"))) (re.++ (re.union (re.union (str.to_re "JJ") (str.to_re "K")) (re.union (str.to_re "L") (str.to_re "MMM"))) (re.++ (re.+ (re.+ (str.to_re "NN"))) (re.++ (re.+ (re.union (str.to_re "O") (str.to_re "PP"))) (re.++ (re.* (re.union (str.to_re "QQQ") (str.to_re "R"))) (re.++ (re.union (re.* (str.to_re "SS")) (re.* (str.to_re "TT"))) (re.++ (re.* (re.* (str.to_re "U"))) (re.++ (re.union (re.+ (str.to_re "V")) (re.+ (str.to_re "WWW"))) (re.++ (re.* (re.+ (str.to_re "XXX"))) (re.++ (re.+ (re.union (str.to_re "YYY") (str.to_re "Z"))) (re.++ (re.* (re.union (str.to_re "!!!") (str.to_re """"))) (re.+ (re.union (str.to_re "###") (str.to_re "$")))))))))))))))))))))))))))))))))))))))))))))))))))))))))))))))))))))))))))))))))))))))))))))))
(assert (not (str.in_re var0 (re.++ (re.* (re.+ (str.to_re "000"))) (re.++ (re.+ (re.+ (str.to_re "11"))) (re.++ (re.union (re.+ (str.to_re "2")) (re.+ (str.to_re "3"))) (re.++ (re.* (re.+ (str.to_re "444"))) (re.++ (re.+ (re.* (str.to_re "55"))) (re.++ (re.* (re.+ (str.to_re "666"))) (re.++ (re.+ (re.+ (str.to_re "777"))) (re.++ (re.union (re.* (str.to_re "8")) (re.* (str.to_re "999"))) (re.++ (re.union (re.union (str.to_re "aa") (str.to_re "b")) (re.union (str.to_re "ccc") (str.to_re "ddd"))) (re.++ (re.union (re.* (str.to_re "eee")) (re.* (str.to_re "ff"))) (re.++ (re.* (re.+ (str.to_re "gg"))) (re.++ (re.* (re.+ (str.to_re "hh"))) (re.++ (re.union (re.+ (str.to_re "ii")) (re.+ (str.to_re "j"))) (re.++ (re.+ (re.+ (str.to_re "k"))) (re.++ (re.union (re.* (str.to_re "lll")) (re.* (str.to_re "m"))) (re.++ (re.* (re.union (str.to_re "nnn") (str.to_re "o"))) (re.++ (re.+ (re.* (str.to_re "p"))) (re.++ (re.* (re.+ (str.to_re "qqq"))) (re.++ (re.+ (re.union (str.to_re "rrr") (str.to_re "sss"))) (re.++ (re.union (re.* (str.to_re "t")) (re.* (str.to_re "uu"))) (re.++ (re.union (re.+ (str.to_re "vv")) (re.+ (str.to_re "www"))) (re.++ (re.* (re.union (str.to_re "xx") (str.to_re "yy"))) (re.++ (re.+ (re.+ (str.to_re "z"))) (re.++ (re.union (re.union (str.to_re "A") (str.to_re "BBB")) (re.union (str.to_re "CCC") (str.to_re "D"))) (re.++ (re.+ (re.+ (str.to_re "EE"))) (re.++ (re.* (re.* (str.to_re "FF"))) (re.++ (re.+ (re.* (str.to_re "GG"))) (re.++ (re.+ (re.* (str.to_re "HHH"))) (re.++ (re.* (re.union (str.to_re "III") (str.to_re "J"))) (re.++ (re.* (re.+ (str.to_re "KKK"))) (re.++ (re.+ (re.union (str.to_re "LLL") (str.to_re "MMM"))) (re.++ (re.union (re.+ (str.to_re "NN")) (re.+ (str.to_re "OO"))) (re.++ (re.union (re.* (str.to_re "P")) (re.* (str.to_re "QQQ"))) (re.++ (re.+ (re.union (str.to_re "R") (str.to_re "SS"))) (re.++ (re.union (re.+ (str.to_re "T")) (re.+ (str.to_re "U"))) (re.++ (re.+ (re.union (str.to_re "VV") (str.to_re "WW"))) (re.++ (re.union (re.union (str.to_re "X") (str.to_re "Y")) (re.union (str.to_re "Z") (str.to_re "!"))) (re.++ (re.+ (re.* (str.to_re """"""))) (re.++ (re.+ (re.* (str.to_re "###"))) (re.++ (re.* (re.union (str.to_re "$$$") (str.to_re "%%"))) (re.++ (re.* (re.+ (str.to_re "&&&"))) (re.++ (re.+ (re.+ (str.to_re "'''"))) (re.++ (re.+ (re.+ (str.to_re "("))) (re.++ (re.* (re.* (str.to_re ")))"))) (re.++ (re.* (re.* (str.to_re "***"))) (re.++ (re.* (re.union (str.to_re "+++") (str.to_re ",,"))) (re.++ (re.* (re.* (str.to_re "---"))) (re.++ (re.union (re.+ (str.to_re ".")) (re.+ (str.to_re "//"))) (re.++ (re.* (re.* (str.to_re ":"))) (re.++ (re.union (re.+ (str.to_re ";;;")) (re.+ (str.to_re "<<"))) (re.++ (re.union (re.* (str.to_re "==")) (re.* (str.to_re ">>"))) (re.++ (re.union (re.* (str.to_re "??")) (re.* (str.to_re "@@"))) (re.++ (re.* (re.+ (str.to_re "[[["))) (re.++ (re.union (re.union (str.to_re "\\") (str.to_re "]]")) (re.union (str.to_re "^") (str.to_re "_"))) (re.++ (re.union (re.* (str.to_re "``")) (re.* (str.to_re "{"))) (re.++ (re.union (re.union (str.to_re "|") (str.to_re "}")) (re.union (str.to_re "~~~") (str.to_re "000"))) (re.++ (re.+ (re.union (str.to_re "11") (str.to_re "2"))) (re.++ (re.union (re.* (str.to_re "33")) (re.* (str.to_re "44"))) (re.++ (re.union (re.* (str.to_re "555")) (re.* (str.to_re "66"))) (re.++ (re.union (re.* (str.to_re "7")) (re.* (str.to_re "8"))) (re.++ (re.union (re.+ (str.to_re "999")) (re.+ (str.to_re "a"))) (re.++ (re.* (re.union (str.to_re "bb") (str.to_re "cc"))) (re.++ (re.* (re.+ (str.to_re "ddd"))) (re.++ (re.+ (re.* (str.to_re "ee"))) (re.++ (re.+ (re.* (str.to_re "f"))) (re.++ (re.* (re.union (str.to_re "ggg") (str.to_re "hh"))) (re.++ (re.* (re.union (str.to_re "iii") (str.to_re "j"))) (re.++ (re.* (re.union (str.to_re "k") (str.to_re "l"))) (re.++ (re.union (re.union (str.to_re "m") (str.to_re "nn")) (re.union (str.to_re "o") (str.to_re "p"))) (re.++ (re.+ (re.* (str.to_re "q"))) (re.++ (re.* (re.+ (str.to_re "rr"))) (re.++ (re.union (re.+ (str.to_re "sss")) (re.+ (str.to_re "t"))) (re.++ (re.* (re.* (str.to_re "uu"))) (re.++ (re.union (re.+ (str.to_re "vvv")) (re.+ (str.to_re "ww"))) (re.++ (re.* (re.* (str.to_re "xx"))) (re.++ (re.* (re.+ (str.to_re "y"))) (re.++ (re.* (re.union (str.to_re "z") (str.to_re "A"))) (re.++ (re.+ (re.union (str.to_re "BB") (str.to_re "CCC"))) (re.++ (re.+ (re.* (str.to_re "DD"))) (re.++ (re.+ (re.+ (str.to_re "EE"))) (re.++ (re.union (re.+ (str.to_re "FF")) (re.+ (str.to_re "GGG"))) (re.++ (re.union (re.union (str.to_re "HHH") (str.to_re "I")) (re.union (str.to_re "JJ") (str.to_re "KKK"))) (re.++ (re.+ (re.union (str.to_re "L") (str.to_re "M"))) (re.++ (re.* (re.* (str.to_re "N"))) (re.++ (re.+ (re.* (str.to_re "OOO"))) (re.++ (re.+ (re.* (str.to_re "PP"))) (re.++ (re.+ (re.union (str.to_re "Q") (str.to_re "RRR"))) (re.++ (re.union (re.union (str.to_re "SS") (str.to_re "T")) (re.union (str.to_re "UU") (str.to_re "VV"))) (re.++ (re.+ (re.+ (str.to_re "WW"))) (re.++ (re.+ (re.* (str.to_re "XX"))) (re.union (re.+ (str.to_re "YYY")) (re.+ (str.to_re "ZZ"))))))))))))))))))))))))))))))))))))))))))))))))))))))))))))))))))))))))))))))))))))))))))))))))
(check-sat)